certificates/rado_a11_c192_N37.cnf
c Rad2 upper bound instance: x1 + 11*x2 - x3 = 192, interval [1,37]
p cnf 37 244
1 7 18 0
-1 -7 -18 0
1 18 19 0
-1 -18 -19 0
1 20 29 0
-1 -20 -29 0
2 8 18 0
-2 -8 -18 0
2 19 0
-2 -19 0
2 20 30 0
-2 -20 -30 0
3 9 18 0
-3 -9 -18 0
3 19 20 0
-3 -19 -20 0
3 20 31 0
-3 -20 -31 0
4 10 18 0
-4 -10 -18 0
4 19 21 0
-4 -19 -21 0
4 20 32 0
-4 -20 -32 0
5 11 18 0
-5 -11 -18 0
5 19 22 0
-5 -19 -22 0
5 20 33 0
-5 -20 -33 0
1 6 17 0
-1 -6 -17 0
6 12 18 0
-6 -12 -18 0
6 19 23 0
-6 -19 -23 0
6 20 34 0
-6 -20 -34 0
2 7 17 0
-2 -7 -17 0
7 13 18 0
-7 -13 -18 0
7 19 24 0
-7 -19 -24 0
7 20 35 0
-7 -20 -35 0
3 8 17 0
-3 -8 -17 0
8 14 18 0
-8 -14 -18 0
8 19 25 0
-8 -19 -25 0
8 20 36 0
-8 -20 -36 0
4 9 17 0
-4 -9 -17 0
9 15 18 0
-9 -15 -18 0
9 19 26 0
-9 -19 -26 0
9 20 37 0
-9 -20 -37 0
5 10 17 0
-5 -10 -17 0
10 16 18 0
-10 -16 -18 0
10 19 27 0
-10 -19 -27 0
6 11 17 0
-6 -11 -17 0
11 17 18 0
-11 -17 -18 0
11 19 28 0
-11 -19 -28 0
7 12 17 0
-7 -12 -17 0
12 18 0
-12 -18 0
12 19 29 0
-12 -19 -29 0
8 13 17 0
-8 -13 -17 0
13 18 19 0
-13 -18 -19 0
13 19 30 0
-13 -19 -30 0
9 14 17 0
-9 -14 -17 0
14 18 20 0
-14 -18 -20 0
14 19 31 0
-14 -19 -31 0
10 15 17 0
-10 -15 -17 0
15 18 21 0
-15 -18 -21 0
15 19 32 0
-15 -19 -32 0
11 16 17 0
-11 -16 -17 0
16 18 22 0
-16 -18 -22 0
16 19 33 0
-16 -19 -33 0
1 16 17 0
-1 -16 -17 0
12 17 0
-12 -17 0
17 18 23 0
-17 -18 -23 0
17 19 34 0
-17 -19 -34 0
2 16 18 0
-2 -16 -18 0
13 17 18 0
-13 -17 -18 0
18 24 0
-18 -24 0
18 19 35 0
-18 -19 -35 0
3 16 19 0
-3 -16 -19 0
14 17 19 0
-14 -17 -19 0
18 19 25 0
-18 -19 -25 0
19 36 0
-19 -36 0
4 16 20 0
-4 -16 -20 0
15 17 20 0
-15 -17 -20 0
18 20 26 0
-18 -20 -26 0
19 20 37 0
-19 -20 -37 0
5 16 21 0
-5 -16 -21 0
16 17 21 0
-16 -17 -21 0
18 21 27 0
-18 -21 -27 0
6 16 22 0
-6 -16 -22 0
17 22 0
-17 -22 0
18 22 28 0
-18 -22 -28 0
7 16 23 0
-7 -16 -23 0
18 23 29 0
-18 -23 -29 0
8 16 24 0
-8 -16 -24 0
17 19 24 0
-17 -19 -24 0
18 24 30 0
-18 -24 -30 0
9 16 25 0
-9 -16 -25 0
17 20 25 0
-17 -20 -25 0
18 25 31 0
-18 -25 -31 0
10 16 26 0
-10 -16 -26 0
17 21 26 0
-17 -21 -26 0
18 26 32 0
-18 -26 -32 0
11 16 27 0
-11 -16 -27 0
17 22 27 0
-17 -22 -27 0
18 27 33 0
-18 -27 -33 0
1 15 28 0
-1 -15 -28 0
12 16 28 0
-12 -16 -28 0
17 23 28 0
-17 -23 -28 0
18 28 34 0
-18 -28 -34 0
2 15 29 0
-2 -15 -29 0
13 16 29 0
-13 -16 -29 0
17 24 29 0
-17 -24 -29 0
18 29 35 0
-18 -29 -35 0
3 15 30 0
-3 -15 -30 0
14 16 30 0
-14 -16 -30 0
17 25 30 0
-17 -25 -30 0
18 30 36 0
-18 -30 -36 0
4 15 31 0
-4 -15 -31 0
15 16 31 0
-15 -16 -31 0
17 26 31 0
-17 -26 -31 0
18 31 37 0
-18 -31 -37 0
5 15 32 0
-5 -15 -32 0
16 32 0
-16 -32 0
17 27 32 0
-17 -27 -32 0
6 15 33 0
-6 -15 -33 0
16 17 33 0
-16 -17 -33 0
17 28 33 0
-17 -28 -33 0
7 15 34 0
-7 -15 -34 0
16 18 34 0
-16 -18 -34 0
17 29 34 0
-17 -29 -34 0
8 15 35 0
-8 -15 -35 0
16 19 35 0
-16 -19 -35 0
17 30 35 0
-17 -30 -35 0
9 15 36 0
-9 -15 -36 0
16 20 36 0
-16 -20 -36 0
17 31 36 0
-17 -31 -36 0
10 15 37 0
-10 -15 -37 0
16 21 37 0
-16 -21 -37 0
17 32 37 0
-17 -32 -37 0
