certificates/rado_a11_c192_N37.drat
-32 -37 0
19 -37 0
-37 0
32 0
-16 0
21 0
-18 0
12 0
22 0
24 0
34 0
2 0
31 0
10 0
-17 0
-19 0
14 0
1 0
33 0
23 0
11 0
13 0
36 0
20 0
3 0
35 0
25 0
-29 0
-30 0
0
